CPXPARAM_TimeLimit                               3600
CPXPARAM_Read_DataCheck                          1
CPXPARAM_MIP_Strategy_HeuristicFreq              -1
Parallel mode: deterministic, using up to 8 threads for concurrent optimization.
Tried aggregator 1 time.
LP Presolve eliminated 437 rows and 0 columns.
Reduced LP has 40033 rows, 6976 columns, and 118766 nonzeros.
Presolve time = 0.01 sec. (18.34 ticks)

Iteration log . . .
Iteration:     1   Dual objective     =           972.000000
Perturbation started.
Iteration:   850   Dual objective     =           972.000000
Iteration:   877   Dual objective     =           972.000190
Initializing dual steep norms . . .
Iteration:   878   Dual objective     =           972.000252
Iteration:  1447   Dual objective     =           972.000933
Iteration:  1917   Dual objective     =           972.010108
Iteration:  2610   Dual objective     =           972.013717
Iteration:  3275   Dual objective     =           972.015947
Iteration:  3942   Dual objective     =           972.020425
Iteration:  4365   Dual objective     =           972.024605
Iteration:  4718   Dual objective     =           972.026541
Iteration:  5190   Dual objective     =           972.028034
Iteration:  5577   Dual objective     =           972.030619
Iteration:  5870   Dual objective     =           972.032678
Iteration:  6273   Dual objective     =           972.034579
Iteration:  6643   Dual objective     =           972.038161
Iteration:  7084   Dual objective     =           972.039620
Iteration:  7476   Dual objective     =           972.042527
Iteration:  7863   Dual objective     =           972.044591
Iteration:  8243   Dual objective     =           972.047322
Iteration:  8583   Dual objective     =           972.053856
Iteration:  8973   Dual objective     =           972.057865
Iteration:  9420   Dual objective     =           972.060608
Iteration:  9803   Dual objective     =           972.066710
Iteration: 10188   Dual objective     =           972.069750
Iteration: 10588   Dual objective     =           972.073477
Iteration: 10976   Dual objective     =          1089.791871
Iteration: 11336   Dual objective     =          1157.789912
Iteration: 11698   Dual objective     =          1181.767386
Iteration: 12099   Dual objective     =          1200.106970
Iteration: 12464   Dual objective     =          1262.068028
Removing perturbation.

Barrier solved model.

